NAME: st70-12-4
TYPE: TSP
COMMENT: min_cost = 338.21
DIMENSION: 12
EDGE_WEIGHT_TYPE: EUC_2D
NODE_COORD_SECTION
1 25 5
2 20 18
3 27 43
4 80 39
5 58 43
6 9 100
7 64 96
8 79 17
9 10 55
10 17 82
11 63 36
12 37 64
EOF
